--------------------------------------------------
s SATISFIABLE
benchmarks_SAT/INST_49x49/0/inst49x49_0_0.cnf : 99489 ms.
--------------------------------------------------
s SATISFIABLE
benchmarks_SAT/INST_49x49/0/inst49x49_0_10.cnf : 95042 ms.
--------------------------------------------------
s SATISFIABLE
benchmarks_SAT/INST_49x49/0/inst49x49_0_11.cnf : 89315 ms.
--------------------------------------------------
s SATISFIABLE
benchmarks_SAT/INST_49x49/0/inst49x49_0_12.cnf : 89339 ms.
--------------------------------------------------
s SATISFIABLE
benchmarks_SAT/INST_49x49/0/inst49x49_0_13.cnf : 88241 ms.
--------------------------------------------------
s SATISFIABLE
benchmarks_SAT/INST_49x49/0/inst49x49_0_14.cnf : 90867 ms.
--------------------------------------------------
s SATISFIABLE
benchmarks_SAT/INST_49x49/0/inst49x49_0_15.cnf : 91065 ms.
--------------------------------------------------
s SATISFIABLE
benchmarks_SAT/INST_49x49/0/inst49x49_0_16.cnf : 88972 ms.
--------------------------------------------------
s SATISFIABLE
benchmarks_SAT/INST_49x49/0/inst49x49_0_17.cnf : 89727 ms.
--------------------------------------------------
s SATISFIABLE
benchmarks_SAT/INST_49x49/0/inst49x49_0_18.cnf : 91988 ms.
--------------------------------------------------
s SATISFIABLE
benchmarks_SAT/INST_49x49/0/inst49x49_0_19.cnf : 88243 ms.
--------------------------------------------------
s SATISFIABLE
benchmarks_SAT/INST_49x49/0/inst49x49_0_1.cnf : 87098 ms.
--------------------------------------------------
s SATISFIABLE
benchmarks_SAT/INST_49x49/0/inst49x49_0_20.cnf : 99095 ms.
--------------------------------------------------
s SATISFIABLE
benchmarks_SAT/INST_49x49/0/inst49x49_0_21.cnf : 107886 ms.
--------------------------------------------------
s SATISFIABLE
benchmarks_SAT/INST_49x49/0/inst49x49_0_22.cnf : 87152 ms.
--------------------------------------------------
s SATISFIABLE
benchmarks_SAT/INST_49x49/0/inst49x49_0_23.cnf : 86912 ms.
--------------------------------------------------
s SATISFIABLE
benchmarks_SAT/INST_49x49/0/inst49x49_0_24.cnf : 87991 ms.
--------------------------------------------------
s SATISFIABLE
benchmarks_SAT/INST_49x49/0/inst49x49_0_25.cnf : 87492 ms.
--------------------------------------------------
s SATISFIABLE
benchmarks_SAT/INST_49x49/0/inst49x49_0_26.cnf : 88308 ms.
--------------------------------------------------
s SATISFIABLE
benchmarks_SAT/INST_49x49/0/inst49x49_0_27.cnf : 82488 ms.
--------------------------------------------------
s SATISFIABLE
benchmarks_SAT/INST_49x49/0/inst49x49_0_28.cnf : 82951 ms.
--------------------------------------------------
s SATISFIABLE
benchmarks_SAT/INST_49x49/0/inst49x49_0_29.cnf : 80729 ms.
--------------------------------------------------
s SATISFIABLE
benchmarks_SAT/INST_49x49/0/inst49x49_0_2.cnf : 80969 ms.
--------------------------------------------------
s SATISFIABLE
benchmarks_SAT/INST_49x49/0/inst49x49_0_30.cnf : 83629 ms.
--------------------------------------------------
s SATISFIABLE
benchmarks_SAT/INST_49x49/0/inst49x49_0_31.cnf : 83189 ms.
--------------------------------------------------
s SATISFIABLE
benchmarks_SAT/INST_49x49/0/inst49x49_0_32.cnf : 82485 ms.
--------------------------------------------------
s SATISFIABLE
benchmarks_SAT/INST_49x49/0/inst49x49_0_33.cnf : 93450 ms.
--------------------------------------------------
s SATISFIABLE
benchmarks_SAT/INST_49x49/0/inst49x49_0_34.cnf : 85831 ms.
--------------------------------------------------
s SATISFIABLE
benchmarks_SAT/INST_49x49/0/inst49x49_0_35.cnf : 82496 ms.
--------------------------------------------------
s SATISFIABLE
benchmarks_SAT/INST_49x49/0/inst49x49_0_36.cnf : 82102 ms.
--------------------------------------------------
s SATISFIABLE
benchmarks_SAT/INST_49x49/0/inst49x49_0_37.cnf : 81338 ms.
--------------------------------------------------
s SATISFIABLE
benchmarks_SAT/INST_49x49/0/inst49x49_0_38.cnf : 81524 ms.
--------------------------------------------------
s SATISFIABLE
benchmarks_SAT/INST_49x49/0/inst49x49_0_39.cnf : 82072 ms.
--------------------------------------------------
s SATISFIABLE
benchmarks_SAT/INST_49x49/0/inst49x49_0_3.cnf : 95482 ms.
--------------------------------------------------
s SATISFIABLE
benchmarks_SAT/INST_49x49/0/inst49x49_0_40.cnf : 95848 ms.
--------------------------------------------------
s SATISFIABLE
benchmarks_SAT/INST_49x49/0/inst49x49_0_41.cnf : 82749 ms.
--------------------------------------------------
s SATISFIABLE
benchmarks_SAT/INST_49x49/0/inst49x49_0_42.cnf : 84878 ms.
--------------------------------------------------
s SATISFIABLE
benchmarks_SAT/INST_49x49/0/inst49x49_0_43.cnf : 82343 ms.
--------------------------------------------------
s SATISFIABLE
benchmarks_SAT/INST_49x49/0/inst49x49_0_44.cnf : 81836 ms.
--------------------------------------------------
s SATISFIABLE
benchmarks_SAT/INST_49x49/0/inst49x49_0_45.cnf : 91527 ms.
--------------------------------------------------
s SATISFIABLE
benchmarks_SAT/INST_49x49/0/inst49x49_0_46.cnf : 83879 ms.
--------------------------------------------------
s SATISFIABLE
benchmarks_SAT/INST_49x49/0/inst49x49_0_47.cnf : 92041 ms.
--------------------------------------------------
s SATISFIABLE
benchmarks_SAT/INST_49x49/0/inst49x49_0_48.cnf : 94250 ms.
--------------------------------------------------
s SATISFIABLE
benchmarks_SAT/INST_49x49/0/inst49x49_0_49.cnf : 93265 ms.
--------------------------------------------------
s SATISFIABLE
benchmarks_SAT/INST_49x49/0/inst49x49_0_4.cnf : 97096 ms.
--------------------------------------------------
s SATISFIABLE
benchmarks_SAT/INST_49x49/0/inst49x49_0_50.cnf : 83532 ms.
--------------------------------------------------
s SATISFIABLE
benchmarks_SAT/INST_49x49/0/inst49x49_0_51.cnf : 81565 ms.
--------------------------------------------------
s SATISFIABLE
benchmarks_SAT/INST_49x49/0/inst49x49_0_52.cnf : 95224 ms.
--------------------------------------------------
s SATISFIABLE
benchmarks_SAT/INST_49x49/0/inst49x49_0_53.cnf : 82260 ms.
--------------------------------------------------
s SATISFIABLE
benchmarks_SAT/INST_49x49/0/inst49x49_0_54.cnf : 95392 ms.
--------------------------------------------------
s SATISFIABLE
benchmarks_SAT/INST_49x49/0/inst49x49_0_55.cnf : 82135 ms.
--------------------------------------------------
s SATISFIABLE
benchmarks_SAT/INST_49x49/0/inst49x49_0_56.cnf : 82682 ms.
--------------------------------------------------
s SATISFIABLE
benchmarks_SAT/INST_49x49/0/inst49x49_0_57.cnf : 81604 ms.
--------------------------------------------------
s SATISFIABLE
benchmarks_SAT/INST_49x49/0/inst49x49_0_58.cnf : 94953 ms.
--------------------------------------------------
s SATISFIABLE
benchmarks_SAT/INST_49x49/0/inst49x49_0_59.cnf : 95281 ms.
--------------------------------------------------
s SATISFIABLE
benchmarks_SAT/INST_49x49/0/inst49x49_0_5.cnf : 95760 ms.
--------------------------------------------------
s SATISFIABLE
benchmarks_SAT/INST_49x49/0/inst49x49_0_60.cnf : 84625 ms.
--------------------------------------------------
s SATISFIABLE
benchmarks_SAT/INST_49x49/0/inst49x49_0_61.cnf : 81797 ms.
--------------------------------------------------
s SATISFIABLE
benchmarks_SAT/INST_49x49/0/inst49x49_0_62.cnf : 92873 ms.
--------------------------------------------------
s SATISFIABLE
benchmarks_SAT/INST_49x49/0/inst49x49_0_63.cnf : 92894 ms.
--------------------------------------------------
s SATISFIABLE
benchmarks_SAT/INST_49x49/0/inst49x49_0_64.cnf : 96074 ms.
--------------------------------------------------
s SATISFIABLE
benchmarks_SAT/INST_49x49/0/inst49x49_0_65.cnf : 93280 ms.
--------------------------------------------------
s SATISFIABLE
benchmarks_SAT/INST_49x49/0/inst49x49_0_66.cnf : 99828 ms.
--------------------------------------------------
s SATISFIABLE
benchmarks_SAT/INST_49x49/0/inst49x49_0_67.cnf : 95029 ms.
--------------------------------------------------
s SATISFIABLE
benchmarks_SAT/INST_49x49/0/inst49x49_0_68.cnf : 86713 ms.
--------------------------------------------------
s SATISFIABLE
benchmarks_SAT/INST_49x49/0/inst49x49_0_69.cnf : 81856 ms.
--------------------------------------------------
s SATISFIABLE
benchmarks_SAT/INST_49x49/0/inst49x49_0_6.cnf : 84252 ms.
--------------------------------------------------
s SATISFIABLE
benchmarks_SAT/INST_49x49/0/inst49x49_0_70.cnf : 83246 ms.
--------------------------------------------------
s SATISFIABLE
benchmarks_SAT/INST_49x49/0/inst49x49_0_71.cnf : 90246 ms.
--------------------------------------------------
s SATISFIABLE
benchmarks_SAT/INST_49x49/0/inst49x49_0_72.cnf : 82931 ms.
--------------------------------------------------
s SATISFIABLE
benchmarks_SAT/INST_49x49/0/inst49x49_0_73.cnf : 100096 ms.
--------------------------------------------------
s SATISFIABLE
benchmarks_SAT/INST_49x49/0/inst49x49_0_74.cnf : 81614 ms.
--------------------------------------------------
s SATISFIABLE
benchmarks_SAT/INST_49x49/0/inst49x49_0_75.cnf : 91603 ms.
--------------------------------------------------
s SATISFIABLE
benchmarks_SAT/INST_49x49/0/inst49x49_0_76.cnf : 83687 ms.
--------------------------------------------------
s SATISFIABLE
benchmarks_SAT/INST_49x49/0/inst49x49_0_77.cnf : 97499 ms.
--------------------------------------------------
s SATISFIABLE
benchmarks_SAT/INST_49x49/0/inst49x49_0_78.cnf : 82669 ms.
--------------------------------------------------
s SATISFIABLE
benchmarks_SAT/INST_49x49/0/inst49x49_0_79.cnf : 81354 ms.
--------------------------------------------------
s SATISFIABLE
benchmarks_SAT/INST_49x49/0/inst49x49_0_7.cnf : 85648 ms.
--------------------------------------------------
s SATISFIABLE
benchmarks_SAT/INST_49x49/0/inst49x49_0_80.cnf : 86401 ms.
--------------------------------------------------
s SATISFIABLE
benchmarks_SAT/INST_49x49/0/inst49x49_0_81.cnf : 100763 ms.
--------------------------------------------------
s SATISFIABLE
benchmarks_SAT/INST_49x49/0/inst49x49_0_82.cnf : 82447 ms.
--------------------------------------------------
s SATISFIABLE
benchmarks_SAT/INST_49x49/0/inst49x49_0_83.cnf : 87002 ms.
--------------------------------------------------
s SATISFIABLE
benchmarks_SAT/INST_49x49/0/inst49x49_0_84.cnf : 102616 ms.
--------------------------------------------------
s SATISFIABLE
benchmarks_SAT/INST_49x49/0/inst49x49_0_85.cnf : 103083 ms.
--------------------------------------------------
s SATISFIABLE
benchmarks_SAT/INST_49x49/0/inst49x49_0_86.cnf : 96615 ms.
--------------------------------------------------
s SATISFIABLE
benchmarks_SAT/INST_49x49/0/inst49x49_0_87.cnf : 101773 ms.
--------------------------------------------------
s SATISFIABLE
benchmarks_SAT/INST_49x49/0/inst49x49_0_88.cnf : 86944 ms.
--------------------------------------------------
s SATISFIABLE
benchmarks_SAT/INST_49x49/0/inst49x49_0_89.cnf : 88509 ms.
--------------------------------------------------
s SATISFIABLE
benchmarks_SAT/INST_49x49/0/inst49x49_0_8.cnf : 91627 ms.
--------------------------------------------------
s SATISFIABLE
benchmarks_SAT/INST_49x49/0/inst49x49_0_90.cnf : 91569 ms.
--------------------------------------------------
s SATISFIABLE
benchmarks_SAT/INST_49x49/0/inst49x49_0_91.cnf : 85713 ms.
--------------------------------------------------
s SATISFIABLE
benchmarks_SAT/INST_49x49/0/inst49x49_0_92.cnf : 81467 ms.
--------------------------------------------------
s SATISFIABLE
benchmarks_SAT/INST_49x49/0/inst49x49_0_93.cnf : 98687 ms.
--------------------------------------------------
s SATISFIABLE
benchmarks_SAT/INST_49x49/0/inst49x49_0_94.cnf : 81256 ms.
--------------------------------------------------
s SATISFIABLE
benchmarks_SAT/INST_49x49/0/inst49x49_0_95.cnf : 82038 ms.
--------------------------------------------------
s SATISFIABLE
benchmarks_SAT/INST_49x49/0/inst49x49_0_96.cnf : 83272 ms.
--------------------------------------------------
s SATISFIABLE
benchmarks_SAT/INST_49x49/0/inst49x49_0_97.cnf : 82514 ms.
--------------------------------------------------
s SATISFIABLE
benchmarks_SAT/INST_49x49/0/inst49x49_0_98.cnf : 84339 ms.
--------------------------------------------------
s SATISFIABLE
benchmarks_SAT/INST_49x49/0/inst49x49_0_99.cnf : 82640 ms.
--------------------------------------------------
s SATISFIABLE
benchmarks_SAT/INST_49x49/0/inst49x49_0_9.cnf : 83819 ms.
